\ This file has been generated by DOcplex
\ ENCODING=ISO-8859-1
\Problem name: Orandom2942_21.lp

Minimize
 obj: - 360.000023458254 x0 - 180.000011729127 x1 - 90.000005864563 x2
      - 368.000023458254 x3 - 184.000011729127 x4 - 92.000005864563 x5
      - 360.000023458254 x6 - 180.000011729127 x7 - 90.000005864563 x8
      - 380.000023458254 x9 - 190.000011729127 x10 - 95.000005864563 x11
      - 384.000023458254 x12 - 192.000011729127 x13 - 96.000005864563 x14
      - 372.000023458254 x15 - 186.000011729127 x16 - 93.000005864563 x17
      - 364.000023458254 x18 - 182.000011729127 x19 - 91.000005864563 x20 + [
      240.000013404716 x0^2 + 240.000013404716 x0*x1 + 120.000006702358 x0*x2
      + 480.000026809433 x0*x3 + 240.000013404716 x0*x4 + 120.000006702358 x0*x5
      + 480.000026809433 x0*x6 + 240.000013404716 x0*x7 + 120.000006702358 x0*x8
      + 480.000026809433 x0*x9 + 240.000013404716 x0*x10
      + 120.000006702358 x0*x11 + 352.000026809433 x0*x12
      + 176.000013404716 x0*x13 + 88.000006702358 x0*x14
      + 416.000026809433 x0*x15 + 208.000013404716 x0*x16
      + 104.000006702358 x0*x17 + 416.000026809433 x0*x18
      + 208.000013404716 x0*x19 + 104.000006702358 x0*x20 + 60.000003351179 x1^2
      + 60.000003351179 x1*x2 + 240.000013404716 x1*x3 + 120.000006702358 x1*x4
      + 60.000003351179 x1*x5 + 240.000013404716 x1*x6 + 120.000006702358 x1*x7
      + 60.000003351179 x1*x8 + 240.000013404716 x1*x9 + 120.000006702358 x1*x10
      + 60.000003351179 x1*x11 + 176.000013404716 x1*x12
      + 88.000006702358 x1*x13 + 44.000003351179 x1*x14
      + 208.000013404716 x1*x15 + 104.000006702358 x1*x16
      + 52.000003351179 x1*x17 + 208.000013404716 x1*x18
      + 104.000006702358 x1*x19 + 52.000003351179 x1*x20 + 15.000000837795 x2^2
      + 120.000006702358 x2*x3 + 60.000003351179 x2*x4 + 30.000001675590 x2*x5
      + 120.000006702358 x2*x6 + 60.000003351179 x2*x7 + 30.000001675590 x2*x8
      + 120.000006702358 x2*x9 + 60.000003351179 x2*x10 + 30.000001675590 x2*x11
      + 88.000006702358 x2*x12 + 44.000003351179 x2*x13 + 22.000001675590 x2*x14
      + 104.000006702358 x2*x15 + 52.000003351179 x2*x16
      + 26.000001675590 x2*x17 + 104.000006702358 x2*x18
      + 52.000003351179 x2*x19 + 26.000001675590 x2*x20 + 240.000013404716 x3^2
      + 240.000013404716 x3*x4 + 120.000006702358 x3*x5 + 416.000026809433 x3*x6
      + 208.000013404716 x3*x7 + 104.000006702358 x3*x8 + 480.000026809433 x3*x9
      + 240.000013404716 x3*x10 + 120.000006702358 x3*x11
      + 416.000026809433 x3*x12 + 208.000013404716 x3*x13
      + 104.000006702358 x3*x14 + 416.000026809433 x3*x15
      + 208.000013404716 x3*x16 + 104.000006702358 x3*x17
      + 416.000026809433 x3*x18 + 208.000013404716 x3*x19
      + 104.000006702358 x3*x20 + 60.000003351179 x4^2 + 60.000003351179 x4*x5
      + 208.000013404716 x4*x6 + 104.000006702358 x4*x7 + 52.000003351179 x4*x8
      + 240.000013404716 x4*x9 + 120.000006702358 x4*x10
      + 60.000003351179 x4*x11 + 208.000013404716 x4*x12
      + 104.000006702358 x4*x13 + 52.000003351179 x4*x14
      + 208.000013404716 x4*x15 + 104.000006702358 x4*x16
      + 52.000003351179 x4*x17 + 208.000013404716 x4*x18
      + 104.000006702358 x4*x19 + 52.000003351179 x4*x20 + 15.000000837795 x5^2
      + 104.000006702358 x5*x6 + 52.000003351179 x5*x7 + 26.000001675590 x5*x8
      + 120.000006702358 x5*x9 + 60.000003351179 x5*x10 + 30.000001675590 x5*x11
      + 104.000006702358 x5*x12 + 52.000003351179 x5*x13
      + 26.000001675590 x5*x14 + 104.000006702358 x5*x15
      + 52.000003351179 x5*x16 + 26.000001675590 x5*x17
      + 104.000006702358 x5*x18 + 52.000003351179 x5*x19
      + 26.000001675590 x5*x20 + 240.000013404716 x6^2 + 240.000013404716 x6*x7
      + 120.000006702358 x6*x8 + 416.000026809433 x6*x9
      + 208.000013404716 x6*x10 + 104.000006702358 x6*x11
      + 352.000026809433 x6*x12 + 176.000013404716 x6*x13
      + 88.000006702358 x6*x14 + 416.000026809433 x6*x15
      + 208.000013404716 x6*x16 + 104.000006702358 x6*x17
      + 416.000026809433 x6*x18 + 208.000013404716 x6*x19
      + 104.000006702358 x6*x20 + 60.000003351179 x7^2 + 60.000003351179 x7*x8
      + 208.000013404716 x7*x9 + 104.000006702358 x7*x10
      + 52.000003351179 x7*x11 + 176.000013404716 x7*x12
      + 88.000006702358 x7*x13 + 44.000003351179 x7*x14
      + 208.000013404716 x7*x15 + 104.000006702358 x7*x16
      + 52.000003351179 x7*x17 + 208.000013404716 x7*x18
      + 104.000006702358 x7*x19 + 52.000003351179 x7*x20 + 15.000000837795 x8^2
      + 104.000006702358 x8*x9 + 52.000003351179 x8*x10 + 26.000001675590 x8*x11
      + 88.000006702358 x8*x12 + 44.000003351179 x8*x13 + 22.000001675590 x8*x14
      + 104.000006702358 x8*x15 + 52.000003351179 x8*x16
      + 26.000001675590 x8*x17 + 104.000006702358 x8*x18
      + 52.000003351179 x8*x19 + 26.000001675590 x8*x20 + 240.000013404716 x9^2
      + 240.000013404716 x9*x10 + 120.000006702358 x9*x11
      + 416.000026809433 x9*x12 + 208.000013404716 x9*x13
      + 104.000006702358 x9*x14 + 416.000026809433 x9*x15
      + 208.000013404716 x9*x16 + 104.000006702358 x9*x17
      + 416.000026809433 x9*x18 + 208.000013404716 x9*x19
      + 104.000006702358 x9*x20 + 60.000003351179 x10^2
      + 60.000003351179 x10*x11 + 208.000013404716 x10*x12
      + 104.000006702358 x10*x13 + 52.000003351179 x10*x14
      + 208.000013404716 x10*x15 + 104.000006702358 x10*x16
      + 52.000003351179 x10*x17 + 208.000013404716 x10*x18
      + 104.000006702358 x10*x19 + 52.000003351179 x10*x20
      + 15.000000837795 x11^2 + 104.000006702358 x11*x12
      + 52.000003351179 x11*x13 + 26.000001675590 x11*x14
      + 104.000006702358 x11*x15 + 52.000003351179 x11*x16
      + 26.000001675590 x11*x17 + 104.000006702358 x11*x18
      + 52.000003351179 x11*x19 + 26.000001675590 x11*x20
      + 400.000013404716 x12^2 + 400.000013404716 x12*x13
      + 200.000006702358 x12*x14 + 480.000026809433 x12*x15
      + 240.000013404716 x12*x16 + 120.000006702358 x12*x17
      + 480.000026809433 x12*x18 + 240.000013404716 x12*x19
      + 120.000006702358 x12*x20 + 100.000003351179 x13^2
      + 100.000003351179 x13*x14 + 240.000013404716 x13*x15
      + 120.000006702358 x13*x16 + 60.000003351179 x13*x17
      + 240.000013404716 x13*x18 + 120.000006702358 x13*x19
      + 60.000003351179 x13*x20 + 25.000000837795 x14^2
      + 120.000006702358 x14*x15 + 60.000003351179 x14*x16
      + 30.000001675590 x14*x17 + 120.000006702358 x14*x18
      + 60.000003351179 x14*x19 + 30.000001675590 x14*x20
      + 240.000013404716 x15^2 + 240.000013404716 x15*x16
      + 120.000006702358 x15*x17 + 416.000026809433 x15*x18
      + 208.000013404716 x15*x19 + 104.000006702358 x15*x20
      + 60.000003351179 x16^2 + 60.000003351179 x16*x17
      + 208.000013404716 x16*x18 + 104.000006702358 x16*x19
      + 52.000003351179 x16*x20 + 15.000000837795 x17^2
      + 104.000006702358 x17*x18 + 52.000003351179 x17*x19
      + 26.000001675590 x17*x20 + 304.000013404716 x18^2
      + 304.000013404716 x18*x19 + 152.000006702358 x18*x20
      + 76.000003351179 x19^2 + 76.000003351179 x19*x20 + 19.000000837795 x20^2
      ]/2 + 318.500020525972
Subject To

Bounds
 0 <= x0 <= 1
 0 <= x1 <= 1
 0 <= x2 <= 1
 0 <= x3 <= 1
 0 <= x4 <= 1
 0 <= x5 <= 1
 0 <= x6 <= 1
 0 <= x7 <= 1
 0 <= x8 <= 1
 0 <= x9 <= 1
 0 <= x10 <= 1
 0 <= x11 <= 1
 0 <= x12 <= 1
 0 <= x13 <= 1
 0 <= x14 <= 1
 0 <= x15 <= 1
 0 <= x16 <= 1
 0 <= x17 <= 1
 0 <= x18 <= 1
 0 <= x19 <= 1
 0 <= x20 <= 1

Binaries
 x0 x1 x2 x3 x4 x5 x6 x7 x8 x9 x10 x11 x12 x13 x14 x15 x16 x17 x18 x19 x20
End
